
Log started (V12.10.0.0) Sun Apr  4 09:08:25 2021


Problem 'asset.lp' read.
Read time = 0.01 sec. (0.18 ticks)
New value for default parallel thread count: 1
New value for time limit in seconds: 300
Version identifier: 12.10.0.0 | 2019-11-26 | 843d4de
CPXPARAM_Threads                                 1
CPXPARAM_TimeLimit                               300
Found incumbent of value -0.898300 after 0.00 sec. (0.09 ticks)
Tried aggregator 4 times.
MIP Presolve eliminated 397 rows and 303 columns.
MIP Presolve modified 1657 coefficients.
Aggregator did 563 substitutions.
Reduced MIP has 749 rows, 750 columns, and 3223 nonzeros.
Reduced MIP has 658 binaries, 54 generals, 0 SOSs, and 0 indicators.
Presolve time = 0.01 sec. (8.03 ticks)
Probing fixed 184 vars, tightened 26 bounds.
Probing time = 0.00 sec. (2.15 ticks)
Cover probing fixed 0 vars, tightened 94 bounds.
Tried aggregator 2 times.
MIP Presolve eliminated 285 rows and 268 columns.
MIP Presolve modified 3 coefficients.
Aggregator did 1 substitutions.
Reduced MIP has 463 rows, 466 columns, and 1577 nonzeros.
Reduced MIP has 414 binaries, 14 generals, 0 SOSs, and 0 indicators.
Presolve time = 0.00 sec. (3.14 ticks)
Probing time = 0.00 sec. (0.87 ticks)
Tried aggregator 1 time.
Detecting symmetries...
Reduced MIP has 463 rows, 466 columns, and 1577 nonzeros.
Reduced MIP has 414 binaries, 14 generals, 0 SOSs, and 0 indicators.
Presolve time = 0.00 sec. (1.17 ticks)
Probing time = 0.00 sec. (0.86 ticks)
Clique table members: 436.
MIP emphasis: balance optimality and feasibility.
MIP search method: dynamic search.
Parallel mode: none, using 1 thread.
Root relaxation solution time = 0.00 sec. (5.05 ticks)

        Nodes                                         Cuts/
   Node  Left     Objective  IInf  Best Integer    Best Bound    ItCnt     Gap

*     0+    0                           -0.8983      464.6115              --- 
      0     0      231.0700   111       -0.8983      231.0700      426     --- 
*     0+    0                          228.8640      231.0700             0.96%
      0     0      229.2161   111      228.8640      Cuts: 64      474    0.15%
*     0+    0                          229.2036      229.2161             0.01%

Implied bound cuts applied:  22
Zero-half cuts applied:  2
Lift and project cuts applied:  1
Gomory fractional cuts applied:  13

Root node processing (before b&c):
  Real time             =    0.04 sec. (33.89 ticks)
Sequential b&c:
  Real time             =    0.00 sec. (0.00 ticks)
                          ------------
Total (root+branch&cut) =    0.04 sec. (33.89 ticks)

Solution pool: 3 solutions saved.

MIP - Integer optimal, tolerance (0.0001/1e-06):  Objective =  2.2920364063e+02
Current MIP best bound =  2.2921608510e+02 (gap = 0.0124445, 0.01%)
Solution time =    0.04 sec.  Iterations = 474  Nodes = 0 (1)
Deterministic time = 33.89 ticks  (863.61 ticks/sec)


Incumbent solution
Variable Name           Solution Value
F                           245.000000
f1                            0.926359
f2                           14.870000
y22                           1.000000
y37                           1.000000
y142                          1.000000
y258                          1.000000
y224                          1.000000
y38                           1.000000
y97                           1.000000
y186                          1.000000
y216                          1.000000
y25                           1.000000
y59                           1.000000
y73                           1.000000
y75                           1.000000
y189                          1.000000
y139                          1.000000
s1                            6.000000
s3                            6.000000
s4                            6.000000
s18                           6.000000
s22                           6.113145
s32                           6.000000
s36                           6.000000
s37                           6.456670
s89                           6.000000
s121                          6.000000
s135                          6.000000
s137                          6.000000
s141                          6.000000
s142                          6.865619
s147                          6.000000
s152                          6.000000
s173                          6.000000
s179                          6.000000
s181                          6.000000
s183                          6.000000
s193                          6.000000
s194                          6.000000
s215                          6.000000
s217                          6.000000
s241                          6.000000
s243                          6.000000
s245                          6.000000
s246                          6.000000
s247                          6.000000
s258                          6.808924
s259                          6.000000
s268                          6.000000
s271                          6.000000
s275                          6.000000
s283                          6.000000
s284                          6.000000
s196                          6.030000
s102                          6.050000
s118                          6.100000
s79                           6.110000
s224                          6.959678
s285                          6.160000
s45                           6.180000
s170                          6.190000
s91                           6.200000
s195                          6.200000
s71                           6.220000
s38                           7.104259
s97                           7.096258
s186                          7.007279
s216                          6.996408
s25                           7.287863
s59                           7.031209
s125                          6.310000
s73                           7.222487
s75                           7.079493
s189                          7.352656
s139                          7.001801
s213                          6.410000
x155x189x1                    1.000000
x263x59x1                     1.000000
x65x189x1                     1.000000
x256x216x1                    1.000000
x141x25x1                     1.000000
x299x59x1                     1.000000
x233x216x1                    1.000000
x171x97x1                     1.000000
x242x75x1                     1.000000
x231x22x1                     1.000000
x76x224x1                     1.000000
x155x186x2                    1.000000
x263x142x2                    1.000000
x126x186x2                    1.000000
x226x142x2                    1.000000
x233x97x2                     1.000000
x61x37x2                      2.000000
x231x22x2                     1.000000
x126x139x3                    1.000000
x65x73x3                      1.000000
x226x38x3                     1.000000
x256x258x3                    1.000000
x93x25x3                      1.000000
x93x139x3                     1.000000
x299x258x3                    1.000000
x171x38x3                     1.000000
x242x224x3                    1.000000
x76x75x3                      1.000000
x22x0x1                       1.000000
x22x73x2                      1.000000
x37x0x2                       2.000000
x142x0x2                      2.000000
x258x0x3                      2.000000
x224x0x1                      1.000000
x224x0x3                      1.000000
x38x0x3                       2.000000
x97x0x1                       1.000000
x97x0x2                       1.000000
x186x0x2                      2.000000
x216x0x1                      2.000000
x25x0x1                       1.000000
x25x0x3                       1.000000
x59x0x1                       2.000000
x73x0x2                       1.000000
x73x0x3                       1.000000
x75x0x1                       1.000000
x75x0x3                       1.000000
x189x0x1                      2.000000
x139x0x3                      2.000000
s155                          5.082566
z155z186z2                    1.000000
z155z189z1                    1.000000
s263                          5.202137
z263z142z2                    1.000000
z263z59z1                     1.000000
s126                          5.110936
z126z186z2                    1.000000
z126z139z3                    1.000000
s65                           5.637286
z65z73z3                      1.000000
z65z189z1                     1.000000
s226                          5.244003
z226z142z2                    1.000000
z226z38z3                     1.000000
s256                          5.240815
z256z258z3                    1.000000
z256z216z1                    1.000000
z141z25z1                     1.000000
s93                           5.680000
z93z25z3                      1.000000
z93z139z3                     1.000000
s299                          4.819530
z299z258z3                    1.000000
z299z59z1                     1.000000
s233                          5.019340
z233z97z2                     1.000000
z233z216z1                    1.000000
s171                          4.838270
z171z38z3                     1.000000
z171z97z1                     1.000000
s242                          4.946270
z242z224z3                    1.000000
z242z75z1                     1.000000
s61                           4.749860
z61z37z2                      1.000000
s231                          4.705660
z231z22z1                     1.000000
z231z22z2                     1.000000
z231z189z1                    1.000000
s76                           5.010310
z76z224z1                     1.000000
z76z75z3                      1.000000
z22z73z2                      1.000000
All other variables in the range 1-1621 are 0.
